IALGO = 38
EDIFF = 1e-06
ICHARG = 11
ISMEAR = -5
ISTART = 1
LMAXMIX = 4
LORBIT = 11
LSORBIT = False
LWAVE = False
NEDOS=5000
EMAX = 10.906500
EMIN = 2.906500
#LCHARG = False
MAGMOM = 10000*0.0
NELM = 300
PREC = high
NPAR=4
SIGMA = 0.01
