IALGO = 38
ICHARG = 11
ISMEAR = 0
ISTART = 0
LMAXMIX = 4
LORBIT = 11
LSORBIT = False
LWAVE = False
MAGMOM = 10000*0.0
NELM = 300
PREC = high
NPAR=4
