Sn Te
   1.0
     0.0000000000000000    3.1590000705440620    3.1590000705440620
     3.1590000705440620    0.0000000000000000    3.1590000705440620
     3.1590000705440620    3.1590000705440620    0.0000000000000000
   1    1
Direct
  0.0000000000000000  0.0000000000000000  0.0000000000000000
  0.5000000000000000  0.5000000000000000  0.5000000000000000
