Sn Te                                   
   1.00000000000000     
     0.0000000000000000    3.1590000705440620    3.1590000705440620
     3.1590000705440620    0.0000000000000000    3.1590000705440620
     3.1590000705440620    3.1590000705440620    0.0000000000000000
   Sn   Te
     1     1
Direct
  0.0000000000000000  0.0000000000000000  0.0000000000000000
  0.5000000000000000  0.5000000000000000  0.5000000000000000
 
  0.00000000E+00  0.00000000E+00  0.00000000E+00
  0.00000000E+00  0.00000000E+00  0.00000000E+00
