IALGO = 38
EDIFF = 1e-06
ICHARG = 11
ISMEAR = -5
ISTART = 1
LMAXMIX = 4
LORBIT = 11
LSORBIT = True
LWAVE = False
NEDOS=5000
EMAX = 10.804800
EMIN = 2.804800
#LCHARG = False
MAGMOM = 10000*0.0
NELM = 300
PREC = high
NPAR=4
SIGMA = 0.005
