K-Points
4
reciprocal
   0.0000000    0.0000000    0.0000000 1       GM    0.0000000    0.0000000    0.0000000
   0.5000000    0.5000000    0.5000000 1        L    0.5000000    0.5000000    0.5000000
   0.5000000    0.2500000    0.7500000 1        W    0.5000000    1.0000000    0.0000000
   0.5000000    0.0000000    0.5000000 1        X    0.0000000    1.0000000    0.0000000
