Automatic kpoint scheme
0
Gamma
41 41 41
