IALGO = 38
EDIFF = 1e-06
ICHARG = 2
ISMEAR = -5
ISTART = 0
LMAXMIX = 4
LORBIT = 11
LSORBIT = True
LWAVE = False
MAGMOM = 10000*0.0
NELM = 300
PREC = high
NPAR=4
LREAL = AUTO
